;symbolic execution tree
(push)
(assert (le x0 java.lang.Object))
(check-sat)
(push)
(assert (le x1 java.lang.Object))
(check-sat)
(push)
(assert (le x2 java.lang.Object))
(check-sat)
(push)
(assert (le x3 java.lang.Object))
(check-sat)
(push)
(assert (= x1 java.lang.String))
(check-sat)
(push)
(assert (= x1 java.lang.String))
(check-sat)
(push)
(assert (le x0 java.io.File))
(check-sat)
(pop)
(push)
(assert (not (le x0 java.io.File)))
(check-sat)
(push)
(assert (= x1 java.lang.String))
(check-sat)
(pop)
(push)
(assert (not (= x1 java.lang.String)))
(check-sat)
(pop)
(push)
(assert (le x2 soot.Type))
(check-sat)
(pop)
(push)
(assert (not (le x2 soot.Type)))
(check-sat)
(pop)
(push)
(assert (le x0 java.io.File))
(check-sat)
(pop)
(push)
(assert (not (le x0 java.io.File)))
(check-sat)
(pop)
(push)
(assert (le x0 java.io.File))
(check-sat)
(pop)
(push)
(assert (not (le x0 java.io.File)))
(check-sat)
(pop)
(push)
(assert (le x3 java.io.DataInputStream))
(check-sat)
(pop)
(push)
(assert (not (le x3 java.io.DataInputStream)))
(check-sat)
(pop)
(push)
(assert (le x2 soot.coffi.CONSTANT_Utf8_info))
(check-sat)
(pop)
(push)
(assert (not (le x2 soot.coffi.CONSTANT_Utf8_info)))
(check-sat)
(pop)
(push)
(assert (= x2 java.lang.String))
(check-sat)
(pop)
(push)
(assert (not (= x2 java.lang.String)))
(check-sat)
(pop)
(pop)
(push)
(assert (= x0 java.lang.String))
(check-sat)
(push)
(assert (= x0 java.lang.String))
(check-sat)
(pop)
(push)
(assert (not (= x0 java.lang.String)))
(check-sat)
(pop)
(pop)
(push)
(assert (not (= x0 java.lang.String)))
(check-sat)
(push)
(assert (le x3 java.util.zip.ZipEntry))
(check-sat)
(push)
(assert (le x3 java.util.zip.ZipEntry))
(check-sat)
(pop)
(push)
(assert (not (le x3 java.util.zip.ZipEntry)))
(check-sat)
(pop)
(push)
(assert (le x2 java.io.DataInputStream))
(check-sat)
(pop)
(push)
(assert (not (le x2 java.io.DataInputStream)))
(check-sat)
(pop)
(pop)
(push)
(assert (not (le x3 java.util.zip.ZipEntry)))
(check-sat)
(pop)
(push)
(assert (= x0 java.lang.String))
(check-sat)
(pop)
(push)
(assert (not (= x0 java.lang.String)))
(check-sat)
(pop)
(pop)
(push)
(assert (= x1 java.lang.String))
(check-sat)
(pop)
(push)
(assert (not (= x1 java.lang.String)))
(check-sat)
(pop)
(push)
(assert (le x0 java.io.DataInputStream))
(check-sat)
(push)
(assert (le x3 java.io.File))
(check-sat)
(push)
(assert (= x1 java.lang.String))
(check-sat)
(pop)
(push)
(assert (not (= x1 java.lang.String)))
(check-sat)
(pop)
(pop)
(push)
(assert (not (le x3 java.io.File)))
(check-sat)
(push)
(assert (le x0 java.io.DataInputStream))
(check-sat)
(pop)
(push)
(assert (not (le x0 java.io.DataInputStream)))
(check-sat)
(pop)
(pop)
(pop)
(push)
(assert (not (le x0 java.io.DataInputStream)))
(check-sat)
(pop)
(push)
(assert (= x0 java.lang.String))
(check-sat)
(pop)
(push)
(assert (not (= x0 java.lang.String)))
(check-sat)
(pop)
(push)
(assert (= x0 java.lang.String))
(check-sat)
(push)
(assert (= x3 java.lang.StringBuffer))
(check-sat)
(pop)
(push)
(assert (not (= x3 java.lang.StringBuffer)))
(check-sat)
(pop)
(pop)
(push)
(assert (not (= x0 java.lang.String)))
(check-sat)
(push)
(assert (= x0 java.lang.String))
(check-sat)
(pop)
(push)
(assert (not (= x0 java.lang.String)))
(check-sat)
(pop)
(push)
(assert (= x2 java.lang.String))
(check-sat)
(pop)
(push)
(assert (not (= x2 java.lang.String)))
(check-sat)
(pop)
(pop)
(push)
(assert (le x3 java.io.File))
(check-sat)
(pop)
(push)
(assert (not (le x3 java.io.File)))
(check-sat)
(push)
(assert (= x1 java.lang.String))
(check-sat)
(pop)
(push)
(assert (not (= x1 java.lang.String)))
(check-sat)
(pop)
(pop)
(push)
(assert (= x3 java.lang.String))
(check-sat)
(push)
(assert (= x1 java.lang.String))
(check-sat)
(pop)
(push)
(assert (not (= x1 java.lang.String)))
(check-sat)
(pop)
(pop)
(push)
(assert (not (= x3 java.lang.String)))
(check-sat)
(pop)
(push)
(assert (le x0 java.io.File))
(check-sat)
(push)
(assert (= x2 java.lang.String))
(check-sat)
(pop)
(push)
(assert (not (= x2 java.lang.String)))
(check-sat)
(pop)
(pop)
(push)
(assert (not (le x0 java.io.File)))
(check-sat)
(pop)
(pop)
(push)
(assert (not (= x1 java.lang.String)))
(check-sat)
(pop)
(pop)
(push)
(assert (not (= x1 java.lang.String)))
(check-sat)
(push)
(assert (= x1 java.lang.String))
(check-sat)
(pop)
(push)
(assert (not (= x1 java.lang.String)))
(check-sat)
(push)
(assert (le x2 java.io.File))
(check-sat)
(pop)
(push)
(assert (not (le x2 java.io.File)))
(check-sat)
(push)
(assert (= x1 java.lang.String))
(check-sat)
(pop)
(push)
(assert (not (= x1 java.lang.String)))
(check-sat)
(pop)
(push)
(assert (le x2 java.io.File))
(check-sat)
(pop)
(push)
(assert (not (le x2 java.io.File)))
(check-sat)
(pop)
(pop)
(push)
(assert (le x0 java.io.File))
(check-sat)
(pop)
(push)
(assert (not (le x0 java.io.File)))
(check-sat)
(push)
(assert (le x2 java.util.zip.ZipEntry))
(check-sat)
(pop)
(push)
(assert (not (le x2 java.util.zip.ZipEntry)))
(check-sat)
(pop)
(push)
(assert (le x0 java.io.File))
(check-sat)
(pop)
(push)
(assert (not (le x0 java.io.File)))
(check-sat)
(pop)
(pop)
(push)
(assert (le x0 java.util.zip.ZipEntry))
(check-sat)
(pop)
(push)
(assert (not (le x0 java.util.zip.ZipEntry)))
(check-sat)
(pop)
(push)
(assert (= x3 java.lang.StringBuilder))
(check-sat)
(pop)
(push)
(assert (not (= x3 java.lang.StringBuilder)))
(check-sat)
(push)
(assert (= x1 java.lang.String))
(check-sat)
(pop)
(push)
(assert (not (= x1 java.lang.String)))
(check-sat)
(pop)
(pop)
(pop)
(push)
(assert (= x1 java.lang.String))
(check-sat)
(pop)
(push)
(assert (not (= x1 java.lang.String)))
(check-sat)
(push)
(assert (le x0 java.io.File))
(check-sat)
(pop)
(push)
(assert (not (le x0 java.io.File)))
(check-sat)
(push)
(assert (= x2 java.lang.String))
(check-sat)
(pop)
(push)
(assert (not (= x2 java.lang.String)))
(check-sat)
(pop)
(pop)
(push)
(assert (le x2 java.io.DataInputStream))
(check-sat)
(push)
(assert (= x0 java.lang.String))
(check-sat)
(push)
(assert (= x0 java.lang.String))
(check-sat)
(pop)
(push)
(assert (not (= x0 java.lang.String)))
(check-sat)
(pop)
(push)
(assert (= x3 java.lang.StringBuffer))
(check-sat)
(pop)
(push)
(assert (not (= x3 java.lang.StringBuffer)))
(check-sat)
(pop)
(push)
(assert (= x1 java.lang.String))
(check-sat)
(pop)
(push)
(assert (not (= x1 java.lang.String)))
(check-sat)
(pop)
(pop)
(push)
(assert (not (= x0 java.lang.String)))
(check-sat)
(push)
(assert (le x2 java.io.DataInputStream))
(check-sat)
(pop)
(push)
(assert (not (le x2 java.io.DataInputStream)))
(check-sat)
(pop)
(pop)
(push)
(assert (le x0 soot.coffi.Code_attribute))
(check-sat)
(pop)
(push)
(assert (not (le x0 soot.coffi.Code_attribute)))
(check-sat)
(pop)
(pop)
(push)
(assert (not (le x2 java.io.DataInputStream)))
(check-sat)
(push)
(assert (= x3 java.lang.StringBuffer))
(check-sat)
(push)
(assert (= x1 java.lang.String))
(check-sat)
(pop)
(push)
(assert (not (= x1 java.lang.String)))
(check-sat)
(pop)
(pop)
(push)
(assert (not (= x3 java.lang.StringBuffer)))
(check-sat)
(push)
(assert (= x1 java.lang.String))
(check-sat)
(pop)
(push)
(assert (not (= x1 java.lang.String)))
(check-sat)
(pop)
(pop)
(pop)
(push)
(assert (le x0 java.util.zip.ZipEntry))
(check-sat)
(push)
(assert (= x2 java.lang.String))
(check-sat)
(pop)
(push)
(assert (not (= x2 java.lang.String)))
(check-sat)
(pop)
(push)
(assert (= x2 java.lang.String))
(check-sat)
(pop)
(push)
(assert (not (= x2 java.lang.String)))
(check-sat)
(push)
(assert (= x3 java.lang.String))
(check-sat)
(pop)
(push)
(assert (not (= x3 java.lang.String)))
(check-sat)
(pop)
(pop)
(push)
(assert (= x2 java.lang.String))
(check-sat)
(pop)
(push)
(assert (not (= x2 java.lang.String)))
(check-sat)
(pop)
(pop)
(push)
(assert (not (le x0 java.util.zip.ZipEntry)))
(check-sat)
(push)
(assert (= x2 java.lang.String))
(check-sat)
(pop)
(push)
(assert (not (= x2 java.lang.String)))
(check-sat)
(pop)
(pop)
(push)
(assert (le x3 java.lang.Object))
(check-sat)
(pop)
(push)
(assert (not (le x3 java.lang.Object)))
(check-sat)
(push)
(assert (le x0 java.util.List))
(check-sat)
(pop)
(push)
(assert (not (le x0 java.util.List)))
(check-sat)
(pop)
(push)
(assert (not (le x3 soot.RefType)))
(check-sat)
(pop)
(push)
(assert (le x3 soot.RefType))
(check-sat)
(pop)
(pop)
(push)
(assert (= x3 java.lang.String))
(check-sat)
(push)
(assert (= x1 java.lang.String))
(check-sat)
(pop)
(push)
(assert (not (= x1 java.lang.String)))
(check-sat)
(pop)
(pop)
(push)
(assert (not (= x3 java.lang.String)))
(check-sat)
(pop)
(pop)
(push)
(assert (le x3 java.io.File))
(check-sat)
(push)
(assert (= x1 java.lang.String))
(check-sat)
(pop)
(push)
(assert (not (= x1 java.lang.String)))
(check-sat)
(pop)
(push)
(assert (= x1 java.lang.String))
(check-sat)
(pop)
(push)
(assert (not (= x1 java.lang.String)))
(check-sat)
(pop)
(pop)
(push)
(assert (not (le x3 java.io.File)))
(check-sat)
(push)
(assert (le x0 java.io.File))
(check-sat)
(pop)
(push)
(assert (not (le x0 java.io.File)))
(check-sat)
(push)
(assert (le x0 java.io.File))
(check-sat)
(pop)
(push)
(assert (not (le x0 java.io.File)))
(check-sat)
(pop)
(push)
(assert (= x1 java.lang.String))
(check-sat)
(pop)
(push)
(assert (not (= x1 java.lang.String)))
(check-sat)
(pop)
(push)
(assert (= x1 java.lang.String))
(check-sat)
(pop)
(push)
(assert (not (= x1 java.lang.String)))
(check-sat)
(pop)
(push)
(assert (le x2 soot.coffi.CONSTANT_NameAndType_info))
(check-sat)
(pop)
(push)
(assert (not (le x2 soot.coffi.CONSTANT_NameAndType_info)))
(check-sat)
(pop)
(pop)
(pop)
(push)
(assert (le x0 java.io.File))
(check-sat)
(pop)
(push)
(assert (not (le x0 java.io.File)))
(check-sat)
(push)
(assert (= x1 java.lang.String))
(check-sat)
(pop)
(push)
(assert (not (= x1 java.lang.String)))
(check-sat)
(push)
(assert (le x0 java.io.File))
(check-sat)
(pop)
(push)
(assert (not (le x0 java.io.File)))
(check-sat)
(pop)
(push)
(assert (= x1 java.lang.String))
(check-sat)
(pop)
(push)
(assert (not (= x1 java.lang.String)))
(check-sat)
(pop)
(push)
(assert (= x1 java.lang.String))
(check-sat)
(pop)
(push)
(assert (not (= x1 java.lang.String)))
(check-sat)
(pop)
(push)
(assert (= x3 java.lang.String))
(check-sat)
(push)
(assert (le x0 java.io.File))
(check-sat)
(pop)
(push)
(assert (not (le x0 java.io.File)))
(check-sat)
(pop)
(pop)
(push)
(assert (not (= x3 java.lang.String)))
(check-sat)
(pop)
(pop)
(push)
(assert (= x1 java.lang.String))
(check-sat)
(pop)
(push)
(assert (not (= x1 java.lang.String)))
(check-sat)
(push)
(assert (= x1 java.lang.String))
(check-sat)
(pop)
(push)
(assert (not (= x1 java.lang.String)))
(check-sat)
(pop)
(pop)
(pop)
(push)
(assert (= x1 java.lang.String))
(check-sat)
(pop)
(push)
(assert (not (= x1 java.lang.String)))
(check-sat)
(pop)
(push)
(assert (le x2 java.io.File))
(check-sat)
(push)
(assert (= x1 java.lang.String))
(check-sat)
(pop)
(push)
(assert (not (= x1 java.lang.String)))
(check-sat)
(pop)
(push)
(assert (= x0 java.lang.String))
(check-sat)
(push)
(assert (= x0 java.lang.String))
(check-sat)
(pop)
(push)
(assert (not (= x0 java.lang.String)))
(check-sat)
(pop)
(push)
(assert (= x0 java.lang.String))
(check-sat)
(pop)
(push)
(assert (not (= x0 java.lang.String)))
(check-sat)
(pop)
(pop)
(push)
(assert (not (= x0 java.lang.String)))
(check-sat)
(pop)
(pop)
(push)
(assert (not (le x2 java.io.File)))
(check-sat)
(pop)
(push)
(assert (= x2 java.lang.String))
(check-sat)
(push)
(assert (= x0 java.lang.String))
(check-sat)
(push)
(assert (le x3 java.util.zip.ZipEntry))
(check-sat)
(pop)
(push)
(assert (not (le x3 java.util.zip.ZipEntry)))
(check-sat)
(push)
(assert (= x2 java.lang.String))
(check-sat)
(pop)
(push)
(assert (not (= x2 java.lang.String)))
(check-sat)
(pop)
(pop)
(push)
(assert (= x3 java.lang.StringBuffer))
(check-sat)
(pop)
(push)
(assert (not (= x3 java.lang.StringBuffer)))
(check-sat)
(push)
(assert (= x2 java.lang.String))
(check-sat)
(pop)
(push)
(assert (not (= x2 java.lang.String)))
(check-sat)
(pop)
(push)
(assert (= x3 java.lang.StringBuffer))
(check-sat)
(pop)
(push)
(assert (not (= x3 java.lang.StringBuffer)))
(check-sat)
(pop)
(push)
(assert (= x1 java.lang.String))
(check-sat)
(pop)
(push)
(assert (not (= x1 java.lang.String)))
(check-sat)
(pop)
(push)
(assert (= x1 java.lang.String))
(check-sat)
(pop)
(push)
(assert (not (= x1 java.lang.String)))
(check-sat)
(pop)
(pop)
(push)
(assert (= x1 java.lang.String))
(check-sat)
(pop)
(push)
(assert (not (= x1 java.lang.String)))
(check-sat)
(pop)
(push)
(assert (= x0 java.lang.String))
(check-sat)
(push)
(assert (= x2 java.lang.String))
(check-sat)
(pop)
(push)
(assert (not (= x2 java.lang.String)))
(check-sat)
(pop)
(pop)
(push)
(assert (not (= x0 java.lang.String)))
(check-sat)
(pop)
(push)
(assert (= x1 java.lang.String))
(check-sat)
(pop)
(push)
(assert (not (= x1 java.lang.String)))
(check-sat)
(pop)
(push)
(assert (= x0 java.lang.String))
(check-sat)
(pop)
(push)
(assert (not (= x0 java.lang.String)))
(check-sat)
(pop)
(push)
(assert (= x0 java.lang.String))
(check-sat)
(pop)
(push)
(assert (not (= x0 java.lang.String)))
(check-sat)
(pop)
(pop)
(push)
(assert (not (= x0 java.lang.String)))
(check-sat)
(pop)
(push)
(assert (= x3 java.lang.String))
(check-sat)
(push)
(assert (= x3 java.lang.String))
(check-sat)
(push)
(assert (= x2 java.lang.String))
(check-sat)
(pop)
(push)
(assert (not (= x2 java.lang.String)))
(check-sat)
(pop)
(pop)
(push)
(assert (not (= x3 java.lang.String)))
(check-sat)
(pop)
(push)
(assert (= x2 java.lang.String))
(check-sat)
(pop)
(push)
(assert (not (= x2 java.lang.String)))
(check-sat)
(pop)
(push)
(assert (= x3 java.lang.String))
(check-sat)
(pop)
(push)
(assert (not (= x3 java.lang.String)))
(check-sat)
(pop)
(push)
(assert (= x3 java.lang.String))
(check-sat)
(pop)
(push)
(assert (not (= x3 java.lang.String)))
(check-sat)
(pop)
(pop)
(push)
(assert (not (= x3 java.lang.String)))
(check-sat)
(pop)
(push)
(assert (le x0 java.io.File))
(check-sat)
(pop)
(push)
(assert (not (le x0 java.io.File)))
(check-sat)
(pop)
(push)
(assert (= x2 java.lang.String))
(check-sat)
(pop)
(push)
(assert (not (= x2 java.lang.String)))
(check-sat)
(pop)
(push)
(assert (= x1 java.lang.String))
(check-sat)
(pop)
(push)
(assert (not (= x1 java.lang.String)))
(check-sat)
(push)
(assert (= x0 java.lang.String))
(check-sat)
(pop)
(push)
(assert (not (= x0 java.lang.String)))
(check-sat)
(pop)
(pop)
(pop)
(push)
(assert (not (= x2 java.lang.String)))
(check-sat)
(pop)
(push)
(assert (= x2 java.lang.StringBuilder))
(check-sat)
(push)
(assert (= x0 java.lang.String))
(check-sat)
(push)
(assert (= x2 java.lang.StringBuilder))
(check-sat)
(pop)
(push)
(assert (not (= x2 java.lang.StringBuilder)))
(check-sat)
(pop)
(pop)
(push)
(assert (not (= x0 java.lang.String)))
(check-sat)
(push)
(assert (le x3 java.io.File))
(check-sat)
(pop)
(push)
(assert (not (le x3 java.io.File)))
(check-sat)
(pop)
(pop)
(pop)
(push)
(assert (not (= x2 java.lang.StringBuilder)))
(check-sat)
(push)
(assert (= x1 java.lang.String))
(check-sat)
(pop)
(push)
(assert (not (= x1 java.lang.String)))
(check-sat)
(pop)
(push)
(assert (le x0 java.io.File))
(check-sat)
(pop)
(push)
(assert (not (le x0 java.io.File)))
(check-sat)
(pop)
(push)
(assert (= x3 java.lang.String))
(check-sat)
(pop)
(push)
(assert (not (= x3 java.lang.String)))
(check-sat)
(push)
(assert (= x1 java.lang.String))
(check-sat)
(pop)
(push)
(assert (not (= x1 java.lang.String)))
(check-sat)
(push)
(assert (= x3 java.lang.String))
(check-sat)
(pop)
(push)
(assert (not (= x3 java.lang.String)))
(check-sat)
(pop)
(pop)
(push)
(assert (= x3 java.lang.String))
(check-sat)
(pop)
(push)
(assert (not (= x3 java.lang.String)))
(check-sat)
(pop)
(push)
(assert (= x3 java.lang.String))
(check-sat)
(pop)
(push)
(assert (not (= x3 java.lang.String)))
(check-sat)
(push)
(assert (= x1 java.lang.String))
(check-sat)
(pop)
(push)
(assert (not (= x1 java.lang.String)))
(check-sat)
(pop)
(pop)
(push)
(assert (= x0 java.lang.String))
(check-sat)
(pop)
(push)
(assert (not (= x0 java.lang.String)))
(check-sat)
(pop)
(pop)
(pop)
(push)
(assert (le x2 java.io.File))
(check-sat)
(pop)
(push)
(assert (not (le x2 java.io.File)))
(check-sat)
(pop)
(push)
(assert (le x3 java.io.InputStream))
(check-sat)
(push)
(assert (= x0 java.lang.StringBuilder))
(check-sat)
(pop)
(push)
(assert (not (= x0 java.lang.StringBuilder)))
(check-sat)
(push)
(assert (le x3 java.io.ByteArrayInputStream))
(check-sat)
(pop)
(push)
(assert (not (le x3 java.io.ByteArrayInputStream)))
(check-sat)
(pop)
(pop)
(push)
(assert (le x3 java.io.ByteArrayInputStream))
(check-sat)
(push)
(assert (= x1 java.lang.String))
(check-sat)
(pop)
(push)
(assert (not (= x1 java.lang.String)))
(check-sat)
(pop)
(pop)
(push)
(assert (not (le x3 java.io.FilterInputStream)))
(check-sat)
(push)
(assert (le x3 java.io.InputStream))
(check-sat)
(push)
(assert (not (le x3 java.io.ObjectInputStream)))
(check-sat)
(push)
(assert (not (le x3 soot.JastAddJ.BytecodeParser_currencysign_DummyInputStream)))
(check-sat)
(push)
(assert (not (le x3 java.io.FileInputStream)))
(check-sat)
(push)
(assert (not (le x3 java.io.ByteArrayInputStream)))
(check-sat)
(pop)
(pop)
(pop)
(pop)
(pop)
(pop)
(push)
(assert (le x3 soot.JastAddJ.BytecodeParser_currencysign_DummyInputStream))
(check-sat)
(pop)
(push)
(assert (le x3 java.io.FileInputStream))
(check-sat)
(pop)
(push)
(assert (le x3 java.util.zip.InflaterInputStream))
(check-sat)
(pop)
(push)
(assert (le x3 java.io.ObjectInputStream))
(check-sat)
(pop)
(push)
(assert (le x3 java.io.DataInputStream))
(check-sat)
(pop)
(push)
(assert (le x3 java.io.BufferedInputStream))
(check-sat)
(pop)
(push)
(assert (not (le x3 java.io.BufferedInputStream)))
(check-sat)
(push)
(assert (not (le x3 java.io.DataInputStream)))
(check-sat)
(push)
(assert (not (le x3 java.util.zip.InflaterInputStream)))
(check-sat)
(push)
(assert (le x3 java.io.FilterInputStream))
(check-sat)
(pop)
(pop)
(pop)
(pop)
(push)
(assert (le x3 java.io.ByteArrayInputStream))
(check-sat)
(push)
(assert (= x0 java.lang.String))
(check-sat)
(pop)
(push)
(assert (not (= x0 java.lang.String)))
(check-sat)
(push)
(assert (le x2 soot.coffi.CONSTANT_Class_info))
(check-sat)
(pop)
(push)
(assert (not (le x2 soot.coffi.CONSTANT_Class_info)))
(check-sat)
(pop)
(pop)
(pop)
(push)
(assert (not (le x3 java.io.FilterInputStream)))
(check-sat)
(push)
(assert (le x3 java.io.InputStream))
(check-sat)
(push)
(assert (not (le x3 java.io.ObjectInputStream)))
(check-sat)
(push)
(assert (not (le x3 soot.JastAddJ.BytecodeParser_currencysign_DummyInputStream)))
(check-sat)
(push)
(assert (not (le x3 java.io.FileInputStream)))
(check-sat)
(push)
(assert (not (le x3 java.io.ByteArrayInputStream)))
(check-sat)
(pop)
(pop)
(pop)
(pop)
(pop)
(pop)
(push)
(assert (le x3 soot.JastAddJ.BytecodeParser_currencysign_DummyInputStream))
(check-sat)
(pop)
(push)
(assert (le x3 java.io.FileInputStream))
(check-sat)
(pop)
(push)
(assert (le x3 java.util.zip.InflaterInputStream))
(check-sat)
(pop)
(push)
(assert (le x3 java.io.ObjectInputStream))
(check-sat)
(pop)
(push)
(assert (le x3 java.io.DataInputStream))
(check-sat)
(pop)
(push)
(assert (le x3 java.io.BufferedInputStream))
(check-sat)
(pop)
(push)
(assert (not (le x3 java.io.BufferedInputStream)))
(check-sat)
(push)
(assert (not (le x3 java.io.DataInputStream)))
(check-sat)
(push)
(assert (not (le x3 java.util.zip.InflaterInputStream)))
(check-sat)
(push)
(assert (le x3 java.io.FilterInputStream))
(check-sat)
(pop)
(pop)
(pop)
(pop)
(push)
(assert (le x3 java.io.ByteArrayInputStream))
(check-sat)
(push)
(assert (= x1 java.lang.String))
(check-sat)
(pop)
(push)
(assert (not (= x1 java.lang.String)))
(check-sat)
(pop)
(pop)
(push)
(assert (not (le x3 java.io.FilterInputStream)))
(check-sat)
(push)
(assert (le x3 java.io.InputStream))
(check-sat)
(push)
(assert (not (le x3 java.io.ObjectInputStream)))
(check-sat)
(push)
(assert (not (le x3 soot.JastAddJ.BytecodeParser_currencysign_DummyInputStream)))
(check-sat)
(push)
(assert (not (le x3 java.io.FileInputStream)))
(check-sat)
(push)
(assert (not (le x3 java.io.ByteArrayInputStream)))
(check-sat)
(pop)
(pop)
(pop)
(pop)
(pop)
(pop)
(push)
(assert (le x3 soot.JastAddJ.BytecodeParser_currencysign_DummyInputStream))
(check-sat)
(pop)
(push)
(assert (le x3 java.io.FileInputStream))
(check-sat)
(pop)
(push)
(assert (le x3 java.util.zip.InflaterInputStream))
(check-sat)
(pop)
(push)
(assert (le x3 java.io.ObjectInputStream))
(check-sat)
(pop)
(push)
(assert (le x3 java.io.DataInputStream))
(check-sat)
(pop)
(push)
(assert (le x3 java.io.BufferedInputStream))
(check-sat)
(pop)
(push)
(assert (not (le x3 java.io.BufferedInputStream)))
(check-sat)
(push)
(assert (not (le x3 java.io.DataInputStream)))
(check-sat)
(push)
(assert (not (le x3 java.util.zip.InflaterInputStream)))
(check-sat)
(push)
(assert (le x3 java.io.FilterInputStream))
(check-sat)
(pop)
(pop)
(pop)
(pop)
(push)
(assert (le x3 java.io.InputStream))
(check-sat)
(push)
(assert (le x2 java.util.zip.ZipEntry))
(check-sat)
(push)
(assert (= x1 java.lang.String))
(check-sat)
(pop)
(push)
(assert (not (= x1 java.lang.String)))
(check-sat)
(pop)
(pop)
(push)
(assert (not (le x2 java.util.zip.ZipEntry)))
(check-sat)
(push)
(assert (le x3 java.io.ByteArrayInputStream))
(check-sat)
(pop)
(push)
(assert (not (le x3 java.io.FilterInputStream)))
(check-sat)
(push)
(assert (le x3 java.io.InputStream))
(check-sat)
(push)
(assert (not (le x3 java.io.ObjectInputStream)))
(check-sat)
(push)
(assert (not (le x3 soot.JastAddJ.BytecodeParser_currencysign_DummyInputStream)))
(check-sat)
(push)
(assert (not (le x3 java.io.FileInputStream)))
(check-sat)
(push)
(assert (not (le x3 java.io.ByteArrayInputStream)))
(check-sat)
(pop)
(pop)
(pop)
(pop)
(pop)
(pop)
(push)
(assert (le x3 soot.JastAddJ.BytecodeParser_currencysign_DummyInputStream))
(check-sat)
(pop)
(push)
(assert (le x3 java.io.FileInputStream))
(check-sat)
(pop)
(push)
(assert (le x3 java.util.zip.InflaterInputStream))
(check-sat)
(pop)
(push)
(assert (le x3 java.io.ObjectInputStream))
(check-sat)
(pop)
(push)
(assert (le x3 java.io.DataInputStream))
(check-sat)
(pop)
(push)
(assert (le x3 java.io.BufferedInputStream))
(check-sat)
(pop)
(push)
(assert (not (le x3 java.io.BufferedInputStream)))
(check-sat)
(push)
(assert (not (le x3 java.io.DataInputStream)))
(check-sat)
(push)
(assert (not (le x3 java.util.zip.InflaterInputStream)))
(check-sat)
(push)
(assert (le x3 java.io.FilterInputStream))
(check-sat)
(pop)
(pop)
(pop)
(pop)
(push)
(assert (= x1 java.lang.String))
(check-sat)
(pop)
(push)
(assert (not (= x1 java.lang.String)))
(check-sat)
(pop)
(pop)
(pop)
(push)
(assert (not (le x3 java.io.InputStream)))
(check-sat)
(push)
(assert (= x1 java.lang.String))
(check-sat)
(pop)
(push)
(assert (not (= x1 java.lang.String)))
(check-sat)
(pop)
(pop)
(push)
(assert (= x1 java.lang.String))
(check-sat)
(pop)
(push)
(assert (not (= x1 java.lang.String)))
(check-sat)
(pop)
(pop)
(push)
(assert (not (le x3 java.io.InputStream)))
(check-sat)
(pop)
(push)
(assert (= x1 java.lang.String))
(check-sat)
(pop)
(push)
(assert (not (= x1 java.lang.String)))
(check-sat)
(push)
(assert (= x0 java.lang.String))
(check-sat)
(pop)
(push)
(assert (not (= x0 java.lang.String)))
(check-sat)
(pop)
(push)
(assert (le x0 java.util.zip.ZipEntry))
(check-sat)
(push)
(assert (= x1 java.lang.String))
(check-sat)
(pop)
(push)
(assert (not (= x1 java.lang.String)))
(check-sat)
(pop)
(push)
(assert (le x0 java.util.zip.ZipEntry))
(check-sat)
(push)
(assert (le x0 java.util.zip.ZipEntry))
(check-sat)
(pop)
(push)
(assert (not (le x0 java.util.zip.ZipEntry)))
(check-sat)
(pop)
(push)
(assert (le x0 java.util.zip.ZipEntry))
(check-sat)
(pop)
(push)
(assert (not (le x0 java.util.zip.ZipEntry)))
(check-sat)
(pop)
(pop)
(push)
(assert (not (le x0 java.util.zip.ZipEntry)))
(check-sat)
(pop)
(push)
(assert (le x0 java.util.zip.ZipEntry))
(check-sat)
(push)
(assert (le x0 java.util.zip.ZipEntry))
(check-sat)
(pop)
(push)
(assert (not (le x0 java.util.zip.ZipEntry)))
(check-sat)
(pop)
(push)
(assert (le x0 java.util.zip.ZipEntry))
(check-sat)
(pop)
(push)
(assert (not (le x0 java.util.zip.ZipEntry)))
(check-sat)
(pop)
(pop)
(push)
(assert (not (le x0 java.util.zip.ZipEntry)))
(check-sat)
(pop)
(push)
(assert (le x0 java.util.zip.ZipEntry))
(check-sat)
(push)
(assert (le x2 java.util.zip.ZipEntry))
(check-sat)
(pop)
(push)
(assert (not (le x2 java.util.zip.ZipEntry)))
(check-sat)
(pop)
(pop)
(push)
(assert (not (le x0 java.util.zip.ZipEntry)))
(check-sat)
(pop)
(push)
(assert (= x1 java.lang.String))
(check-sat)
(pop)
(push)
(assert (not (= x1 java.lang.String)))
(check-sat)
(push)
(assert (= x2 java.lang.StringBuffer))
(check-sat)
(pop)
(push)
(assert (not (= x2 java.lang.StringBuffer)))
(check-sat)
(pop)
(pop)
(push)
(assert (le x0 java.util.zip.ZipEntry))
(check-sat)
(push)
(assert (= x1 java.lang.String))
(check-sat)
(pop)
(push)
(assert (not (= x1 java.lang.String)))
(check-sat)
(pop)
(pop)
(push)
(assert (not (le x0 java.util.zip.ZipEntry)))
(check-sat)
(pop)
(pop)
(push)
(assert (not (le x0 java.util.zip.ZipEntry)))
(check-sat)
(push)
(assert (le x2 java.io.File))
(check-sat)
(pop)
(push)
(assert (not (le x2 java.io.File)))
(check-sat)
(pop)
(push)
(assert (= x2 java.lang.String))
(check-sat)
(pop)
(push)
(assert (not (= x2 java.lang.String)))
(check-sat)
(pop)
(pop)
(push)
(assert (= x1 java.lang.String))
(check-sat)
(pop)
(push)
(assert (not (= x1 java.lang.String)))
(check-sat)
(push)
(assert (= x0 java.lang.String))
(check-sat)
(push)
(assert (= x1 java.lang.String))
(check-sat)
(pop)
(push)
(assert (not (= x1 java.lang.String)))
(check-sat)
(pop)
(pop)
(push)
(assert (not (= x0 java.lang.String)))
(check-sat)
(pop)
(pop)
(push)
(assert (= x2 java.lang.String))
(check-sat)
(pop)
(push)
(assert (not (= x2 java.lang.String)))
(check-sat)
(pop)
(push)
(assert (le x2 java.io.InputStream))
(check-sat)
(push)
(assert (le x0 soot.coffi.Exception_attribute))
(check-sat)
(pop)
(push)
(assert (not (le x0 soot.coffi.Exception_attribute)))
(check-sat)
(pop)
(pop)
(push)
(assert (not (le x2 java.io.InputStream)))
(check-sat)
(push)
(assert (= x0 java.lang.String))
(check-sat)
(push)
(assert (le x3 java.util.zip.ZipEntry))
(check-sat)
(pop)
(push)
(assert (not (le x3 java.util.zip.ZipEntry)))
(check-sat)
(pop)
(pop)
(push)
(assert (not (= x0 java.lang.String)))
(check-sat)
(pop)
(push)
(assert (= x0 java.lang.String))
(check-sat)
(pop)
(push)
(assert (not (= x0 java.lang.String)))
(check-sat)
(pop)
(pop)
(push)
(assert (= x2 java.lang.String))
(check-sat)
(pop)
(push)
(assert (not (= x2 java.lang.String)))
(check-sat)
(pop)
(push)
(assert (= x3 java.lang.String))
(check-sat)
(push)
(assert (le x0 java.io.File))
(check-sat)
(pop)
(push)
(assert (not (le x0 java.io.File)))
(check-sat)
(pop)
(pop)
(push)
(assert (not (= x3 java.lang.String)))
(check-sat)
(push)
(assert (= x2 java.lang.String))
(check-sat)
(pop)
(push)
(assert (not (= x2 java.lang.String)))
(check-sat)
(pop)
(pop)
(push)
(assert (le x3 java.io.File))
(check-sat)
(pop)
(push)
(assert (not (le x3 java.io.File)))
(check-sat)
(pop)
(pop)
(push)
(assert (le x0 java.io.File))
(check-sat)
(pop)
(push)
(assert (not (le x0 java.io.File)))
(check-sat)
(push)
(assert (= x1 java.lang.String))
(check-sat)
(pop)
(push)
(assert (not (= x1 java.lang.String)))
(check-sat)
(push)
(assert (= x1 java.lang.String))
(check-sat)
(pop)
(push)
(assert (not (= x1 java.lang.String)))
(check-sat)
(pop)
(pop)
(pop)
(pop)
